
Starting CP-SAT solver v9.15.6755
Parameters: random_seed: 2026074138 max_time_in_seconds: 2500 log_search_progress: true cp_model_presolve: true linearization_level: 2 num_search_workers: 4 cp_model_probing_level: 2 symmetry_level: 2

Initial satisfaction model '': (model_fingerprint: 0xe7b6c98e428e984)
#Variables: 724 (604 primary variables)
  - 724 Booleans in [0,1]
#kBoolAnd: 110 (#enforced: 110) (#literals: 330)
#kBoolOr: 110 (#enforced: 110) (#literals: 220)
#kExactlyOne: 87 (#literals: 261)
#kLinear1: 36 (#enforced: 6)
#kLinear2: 336 (#enforced: 336) (#complex_domain: 110)
#kLinear3: 1'600 (#enforced: 6)
#kLinearN: 1'132 (#enforced: 243) (#terms: 9'111)

Starting presolve at 0.00s
  6.37e-04s  0.00e+00d  [DetectDominanceRelations] 
  8.55e-03s  0.00e+00d  [PresolveToFixPoint] #num_loops=3 #num_dual_strengthening=1 
  3.27e-05s  0.00e+00d  [ExtractEncodingFromLinear] #potential_supersets=100 
  2.38e-04s  0.00e+00d  [DetectDuplicateColumns] 
  9.69e-05s  0.00e+00d  [DetectDuplicateConstraints] #duplicates=9 
[Symmetry] Graph for symmetry has 4'855 nodes and 15'612 arcs.
[Symmetry] Symmetry computation done. time: 0.00108936 dtime: 0.00182671
[SAT presolve] num removable Booleans: 220 / 622
[SAT presolve] num trivial clauses: 0
[SAT presolve] [0s] clauses:2'708 literals:7'370 vars:506 one_side_vars:66 simple_definition:1 singleton_clauses:0
[SAT presolve] [0.000225022s] clauses:2'707 literals:7'363 vars:506 one_side_vars:66 simple_definition:1 singleton_clauses:0
[SAT presolve] [0.000537206s] clauses:2'475 literals:7'027 vars:394 one_side_vars:66 simple_definition:2 singleton_clauses:0
  1.19e-04s  0.00e+00d  [DetectDuplicateConstraintsWithDifferentEnforcements] #without_enforcements=30 
  5.75e-03s  2.87e-03d  [Probe] #probed=1'198 #fixed_bools=51 #equiv=3 #new_binary_clauses=1'613 
  5.77e-04s  6.52e-04d  [MaxClique] Merged 695 constraints with 1'552 literals into 576 constraints with 1'371 literals
  7.69e-04s  0.00e+00d  [DetectDominanceRelations] 
  3.36e-03s  0.00e+00d  [PresolveToFixPoint] #num_loops=2 #num_dual_strengthening=2 
  1.23e-03s  0.00e+00d  [ProcessAtMostOneAndLinear] 
  8.77e-05s  0.00e+00d  [DetectDuplicateConstraints] 
  7.30e-05s  0.00e+00d  [DetectDuplicateConstraintsWithDifferentEnforcements] 
  2.68e-03s  9.54e-05d  [DetectDominatedLinearConstraints] #relevant_constraints=830 #num_inclusions=479 #num_redundant=7 
  1.90e-04s  0.00e+00d  [DetectDifferentVariables] 
  7.16e-04s  7.80e-05d  [ProcessSetPPC] #relevant_constraints=2'908 #num_inclusions=131 
  2.71e-04s  2.85e-05d  [TransformClausesToExactlyOne] #num_amos=591 #num_clauses=1'516 #num_transformed=2 #num_checked=1'516 
  4.76e-05s  0.00e+00d  [DetectEncodedComplexDomains] 
  2.75e-05s  0.00e+00d  [FindAlmostIdenticalLinearConstraints] 
  9.90e-04s  1.45e-03d  [FindBigAtMostOneAndLinearOverlap] 
  1.52e-03s  1.19e-03d  [FindBigVerticalLinearOverlap] #blocks=4 #saved_nz=154 
  3.40e-04s  6.05e-04d  [FindBigHorizontalLinearOverlap] #linears=460 
  2.84e-04s  2.31e-05d  [MergeClauses] #num_collisions=1 #num_merges=1 #num_saved_literals=2 
  7.50e-04s  0.00e+00d  [DetectDominanceRelations] 
  3.11e-03s  0.00e+00d  [PresolveToFixPoint] #num_loops=2 #num_dual_strengthening=1 
  7.31e-04s  0.00e+00d  [DetectDominanceRelations] 
  2.85e-03s  0.00e+00d  [PresolveToFixPoint] #num_loops=1 #num_dual_strengthening=1 
  1.22e-04s  0.00e+00d  [DetectDuplicateColumns] 
  8.23e-05s  0.00e+00d  [DetectDuplicateConstraints] 
[Symmetry] Graph for symmetry has 4'291 nodes and 13'260 arcs.
[Symmetry] Symmetry computation done. time: 0.000889327 dtime: 0.00139066
[SAT presolve] num removable Booleans: 53 / 461
[SAT presolve] num trivial clauses: 0
[SAT presolve] [0s] clauses:2'036 literals:5'673 vars:437 one_side_vars:261 simple_definition:24 singleton_clauses:0
[SAT presolve] [0.000189833s] clauses:2'034 literals:5'620 vars:437 one_side_vars:268 simple_definition:35 singleton_clauses:0
[SAT presolve] [0.00033725s] clauses:1'884 literals:5'299 vars:413 one_side_vars:310 simple_definition:22 singleton_clauses:0
  1.43e-04s  0.00e+00d  [DetectDuplicateConstraintsWithDifferentEnforcements] #without_enforcements=3 
  6.08e-03s  2.26e-03d  [Probe] #probed=1'208 #new_binary_clauses=1'584 
  5.20e-04s  6.18e-04d  [MaxClique] Merged 539 constraints with 1'238 literals into 527 constraints with 1'236 literals
  7.46e-04s  0.00e+00d  [DetectDominanceRelations] 
  2.96e-03s  0.00e+00d  [PresolveToFixPoint] #num_loops=1 #num_dual_strengthening=1 
  1.16e-03s  0.00e+00d  [ProcessAtMostOneAndLinear] 
  9.95e-05s  0.00e+00d  [DetectDuplicateConstraints] 
  8.11e-05s  0.00e+00d  [DetectDuplicateConstraintsWithDifferentEnforcements] 
  1.65e-03s  7.12e-05d  [DetectDominatedLinearConstraints] #relevant_constraints=819 #num_inclusions=388 
  1.26e-04s  0.00e+00d  [DetectDifferentVariables] 
  6.77e-04s  6.67e-05d  [ProcessSetPPC] #relevant_constraints=2'834 #num_inclusions=83 
  2.68e-04s  2.60e-05d  [TransformClausesToExactlyOne] #num_amos=525 #num_clauses=1'431 #num_checked=1'431 
  1.35e-04s  0.00e+00d  [DetectEncodedComplexDomains] 
  3.89e-05s  2.00e-07d  [FindAlmostIdenticalLinearConstraints] #num_tested_pairs=2 
  8.94e-04s  1.23e-03d  [FindBigAtMostOneAndLinearOverlap] 
  1.36e-03s  1.00e-03d  [FindBigVerticalLinearOverlap] #blocks=3 #saved_nz=111 
  3.03e-04s  5.11e-04d  [FindBigHorizontalLinearOverlap] #linears=457 
  2.80e-04s  2.19e-05d  [MergeClauses] #num_collisions=22 #num_merges=22 #num_saved_literals=66 
  7.71e-04s  0.00e+00d  [DetectDominanceRelations] 
  3.01e-03s  0.00e+00d  [PresolveToFixPoint] #num_loops=2 #num_dual_strengthening=1 
  7.59e-04s  0.00e+00d  [DetectDominanceRelations] 
  2.92e-03s  0.00e+00d  [PresolveToFixPoint] #num_loops=1 #num_dual_strengthening=1 
  1.52e-04s  0.00e+00d  [DetectDuplicateColumns] 
  8.98e-05s  0.00e+00d  [DetectDuplicateConstraints] 
[Symmetry] Graph for symmetry has 4'118 nodes and 12'599 arcs.
[Symmetry] Symmetry computation done. time: 0.000827903 dtime: 0.00131016
[SAT presolve] num removable Booleans: 29 / 437
[SAT presolve] num trivial clauses: 0
[SAT presolve] [0s] clauses:1'863 literals:5'246 vars:413 one_side_vars:310 simple_definition:22 singleton_clauses:0
[SAT presolve] [0.000166738s] clauses:1'863 literals:5'246 vars:413 one_side_vars:310 simple_definition:22 singleton_clauses:0
[SAT presolve] [0.00021088s] clauses:1'863 literals:5'246 vars:413 one_side_vars:310 simple_definition:22 singleton_clauses:0
  1.46e-04s  0.00e+00d  [DetectDuplicateConstraintsWithDifferentEnforcements] 
  5.97e-03s  2.21e-03d  [Probe] #probed=1'208 #new_binary_clauses=1'584 
  5.04e-04s  6.05e-04d  [MaxClique] 
  7.94e-04s  0.00e+00d  [DetectDominanceRelations] 
  3.01e-03s  0.00e+00d  [PresolveToFixPoint] #num_loops=1 #num_dual_strengthening=1 
  1.14e-03s  0.00e+00d  [ProcessAtMostOneAndLinear] 
  1.02e-04s  0.00e+00d  [DetectDuplicateConstraints] 
  8.79e-05s  0.00e+00d  [DetectDuplicateConstraintsWithDifferentEnforcements] 
  7.28e-04s  5.54e-05d  [DetectDominatedLinearConstraints] #relevant_constraints=822 #num_inclusions=306 
  1.27e-04s  0.00e+00d  [DetectDifferentVariables] 
  6.79e-04s  6.42e-05d  [ProcessSetPPC] #relevant_constraints=2'827 #num_inclusions=71 
  2.76e-04s  2.60e-05d  [TransformClausesToExactlyOne] #num_amos=523 #num_clauses=1'431 #num_checked=1'431 
  1.26e-04s  0.00e+00d  [DetectEncodedComplexDomains] 
  4.59e-05s  0.00e+00d  [FindAlmostIdenticalLinearConstraints] 
  8.52e-04s  1.11e-03d  [FindBigAtMostOneAndLinearOverlap] 
  1.25e-03s  9.59e-04d  [FindBigVerticalLinearOverlap] 
  3.14e-04s  5.11e-04d  [FindBigHorizontalLinearOverlap] #linears=457 
  2.92e-04s  2.19e-05d  [MergeClauses] #num_collisions=22 #num_merges=22 #num_saved_literals=66 
  7.93e-04s  0.00e+00d  [DetectDominanceRelations] 
  2.99e-03s  0.00e+00d  [PresolveToFixPoint] #num_loops=1 #num_dual_strengthening=1 
  2.32e-05s  0.00e+00d  [MergeNoOverlap] 
  2.18e-05s  0.00e+00d  [MergeNoOverlap2D] 

Presolve summary:
  - 30 affine relations were detected.
  - rule 'TODO dual: only one blocking constraint?' was applied 1'038 times.
  - rule 'TODO linear inclusion: superset is equality' was applied 220 times.
  - rule 'affine: new relation' was applied 30 times.
  - rule 'at_most_one: removed literals' was applied 15 times.
  - rule 'at_most_one: satisfied' was applied 50 times.
  - rule 'at_most_one: size one' was applied 15 times.
  - rule 'at_most_one: transformed into max clique' was applied 2 times.
  - rule 'bool_or: always true' was applied 242 times.
  - rule 'bool_or: implications' was applied 69 times.
  - rule 'bool_or: only one literal' was applied 12 times.
  - rule 'bool_or: removed enforcement literal' was applied 573 times.
  - rule 'clauses: transformed into exactly one' was applied 2 times.
  - rule 'deductions: 794 stored' was applied 1 time.
  - rule 'dual: fix variable' was applied 1 time.
  - rule 'duplicate: merged rhs of linear constraint' was applied 8 times.
  - rule 'duplicate: removed constraint' was applied 9 times.
  - rule 'duplicate: removed enforced constraint' was applied 33 times.
  - rule 'enforcement: false literal' was applied 32 times.
  - rule 'enforcement: true literal' was applied 6 times.
  - rule 'exactly_one: removed literals' was applied 28 times.
  - rule 'exactly_one: satisfied' was applied 7 times.
  - rule 'exactly_one: singleton' was applied 2 times.
  - rule 'exactly_one: size two' was applied 26 times.
  - rule 'incompatible linear: add implication' was applied 144 times.
  - rule 'linear + amo: empty after processing' was applied 6 times.
  - rule 'linear + amo: extracted enforcement literal' was applied 64 times.
  - rule 'linear + amo: trivial linear constraint' was applied 1 time.
  - rule 'linear inclusion: redundant containing constraint' was applied 3 times.
  - rule 'linear inclusion: redundant included constraint' was applied 3 times.
  - rule 'linear inclusion: sparsify superset' was applied 1 time.
  - rule 'linear matrix: common vertical rectangle' was applied 7 times.
  - rule 'linear1: always true' was applied 1 time.
  - rule 'linear1: x in domain' was applied 30 times.
  - rule 'linear2: convert ax + by != cte to clauses' was applied 244 times.
  - rule 'linear2: convert implied ax + by == cte to clauses' was applied 118 times.
  - rule 'linear2: implied ax + by = cte has only one solution' was applied 8 times.
  - rule 'linear: always true' was applied 431 times.
  - rule 'linear: coefficient strengthening by increasing it' was applied 2 times.
  - rule 'linear: empty' was applied 3 times.
  - rule 'linear: enforcement literal in expression' was applied 2 times.
  - rule 'linear: extracted at most one (max)' was applied 1 time.
  - rule 'linear: fixed or dup variables' was applied 879 times.
  - rule 'linear: negative clause' was applied 1'287 times.
  - rule 'linear: negative reified and' was applied 74 times.
  - rule 'linear: never in domain' was applied 6 times.
  - rule 'linear: positive at most one' was applied 48 times.
  - rule 'linear: reduced variable domains' was applied 8 times.
  - rule 'linear: remapped using affine relations' was applied 23 times.
  - rule 'new_bool: integer encoding' was applied 6 times.
  - rule 'presolve: 126 unused variables removed.' was applied 1 time.
  - rule 'presolve: iteration' was applied 3 times.
  - rule 'probing: bool_or reduced to implication' was applied 90 times.
  - rule 'probing: simplified clauses' was applied 15 times.
  - rule 'setppc: bool_or in at_most_one' was applied 9 times.
  - rule 'setppc: removed dominated constraints' was applied 99 times.
  - rule 'variables: add encoding constraint' was applied 6 times.
  - rule 'variables: both boolean and its negation fix the same variable' was applied 1 time.
  - rule 'variables: detect half reified value encoding' was applied 2 times.

Presolved satisfaction model '': (model_fingerprint: 0x12b73edd63f4c3a9)
#Variables: 443 (374 primary variables)
  - 437 Booleans in [0,1]
  - 6 in [0,2]
#kAtMostOne: 91 (#literals: 342)
#kBoolAnd: 270 (#enforced: 270) (#literals: 702)
#kBoolAndClauses: 22 (#enforced: 22 #multi: 22) (#literals: 110)
#kBoolOr: 1'387 (#literals: 4'206)
#kExactlyOne: 60 (#literals: 232)
#kLinear1: 12 (#enforced: 12)
#kLinear3: 9 (#enforced: 6)
#kLinearN: 813 (#enforced: 124) (#terms: 5'677)
[Symmetry] Graph for symmetry has 3'824 nodes and 12'599 arcs.
[Symmetry] Symmetry computation done. time: 0.000720051 dtime: 0.00129256

Preloading model.
#Model   0.09s var:443/443 constraints:2664/2664

Starting search at 0.09s with 4 workers.
3 full problem subsolvers: [default_lp, max_lp, no_lp]
1 first solution subsolver: [fj]
2 interleaved subsolvers: [feasibility_pump, rins/rens]
2 helper subsolvers: [neighborhood_helper, synchronization_agent]

#Model   2.12s var:442/443 constraints:2662/2664
#Model   3.94s var:441/443 constraints:2660/2664
#Model 216.53s var:440/443 constraints:2658/2664
#Model 245.87s var:439/443 constraints:2656/2664
#Model 408.02s var:438/443 constraints:2639/2664
#Model 524.81s var:433/443 constraints:2603/2664
#Model 569.72s var:431/443 constraints:2584/2664
#Model 615.16s var:428/443 constraints:2567/2664
#Model 827.14s var:427/443 constraints:2548/2664
#Model 848.27s var:426/443 constraints:2547/2664
#Model 903.51s var:425/443 constraints:2525/2664
#Model 925.53s var:424/443 constraints:2507/2664
#Model 930.32s var:423/443 constraints:2491/2664
#Model 934.24s var:422/443 constraints:2478/2664
#Model 935.09s var:421/443 constraints:2461/2664
#Model 935.54s var:420/443 constraints:2438/2664
#Model 936.63s var:417/443 constraints:2403/2664
#Model 936.68s var:415/443 constraints:2362/2664
#Model 936.81s var:412/443 constraints:2326/2664
#Model 936.81s var:394/443 constraints:2113/2664
#Done  936.89s no_lp

Task timing                   n [     min,      max]      avg      dev     time         n [     min,      max]      avg      dev    dtime
        'default_lp':         1 [  15.61m,   15.61m]   15.61m   0.00ns   15.61m         2 [  2.44ms,   14.79m]    7.39m    7.39m   14.79m
  'feasibility_pump':      4645 [974.15us, 129.41ms]   1.57ms   1.90ms    7.31s      4644 [268.55us, 111.29ms] 294.50us   1.63ms    1.37s
                'fj':      3290 [ 86.85ms, 174.93ms] 141.19ms  11.25ms    7.74m      3290 [ 54.94ms, 100.12ms] 100.00ms 785.86us    5.48m
            'max_lp':         1 [  15.61m,   15.61m]   15.61m   0.00ns   15.61m         2 [ 90.36ms,   17.95m]    8.98m    8.98m   17.96m
             'no_lp':         1 [  15.61m,   15.61m]   15.61m   0.00ns   15.61m         2 [  2.23ms,   28.98m]   14.49m   14.49m   28.98m
         'rins/rens':      4254 [843.73us, 175.98ms] 109.18ms  42.09ms    7.74m      4253 [215.94us, 100.28ms]  66.55ms  38.45ms    4.72m

Search stats     Bools  Conflicts    Branches  Restarts  BacktrackToRoot  Backtrack   BoolPropag  IntegerPropag
  'default_lp':    437     91'296   4'405'338       520          733'691  1'021'968   54'296'489     62'824'202
      'max_lp':    437     66'753   5'994'010       358          984'357  1'288'189   73'428'475     89'646'153
       'no_lp':    437  9'139'992  13'124'880    30'325          329'761  9'445'170  747'525'262    223'850'524

SAT formula      Fixed  Equiv  Total  VarLeft  BinaryClauses  PermanentClauses  TemporaryClauses
  'default_lp':     18      5    437      414          3'024            28'378             7'654
      'max_lp':     19      5    437      413          3'072            25'180             3'029
       'no_lp':    261      5    437      171          3'144            52'792             2'887

SAT stats        ClassicMinim   LitRemoved  LitRemovedBinary   LitLearned  LitForgotten   Subsumed
  'default_lp':        78'691      862'108           592'279    2'397'270     1'282'557     34'947
      'max_lp':        56'119      639'383           390'414    1'430'205       669'238     24'169
       'no_lp':     8'116'041  120'811'612        59'638'886  203'989'333   160'841'927  2'460'429

Vivification       Clauses  Decisions  LitTrue  Subsumed  LitRemoved  DecisionReused  Conflicts
  'default_lp':    815'351  4'175'579        1    10'216     106'699         233'838      1'077
      'max_lp':  1'080'979  5'768'025        3    12'927     135'626         295'782      1'441
       'no_lp':    281'218  2'288'853        7    17'490     238'032          79'045      1'420

Clause deletion    at_true  l_and_not(l)  to_binary  sub_conflict  sub_extra  sub_decisions  sub_eager  sub_vivify  sub_probing  sub_inpro  blocked  eliminated  forgotten    promoted  conflicts
    'default_lp':    6'185            17          9        34'389        228          1'139        558      10'216        4'098      8'184        0           0     38'285     178'050     91'296
        'max_lp':    7'878            17          8        23'898        139            732        271      12'927        4'707     13'648        0           0     24'126     125'157     66'753
         'no_lp':   67'322            51         33     2'413'901     19'695        101'058     46'528      17'490        9'395    107'584        0           0  6'302'062  20'684'732  9'139'992

Lp stats         Component  Iterations  AddedCuts  OPTIMAL  DUAL_F.  DUAL_U.
  'default_lp':          1  10'836'451     34'443  121'149        1   66'806
      'max_lp':          1   5'240'411     39'703   21'927   48'422   16'563

Lp dimension        Final dimension of first component
  'default_lp':    284 rows, 363 columns, 2794 entries
      'max_lp':  1094 rows, 443 columns, 13713 entries

Lp debug         CutPropag  CutEqPropag  Adjust  Overflow        Bad  BadScaling
  'default_lp':          0           30  66'806         0  1'038'075           0
      'max_lp':          0           13  16'561         0  1'148'911           0

Lp pool          Constraints  Updates  Simplif  Merged  Shortened  Split  Strengthened      Cuts/Call
  'default_lp':       10'265    5'648   12'893       0     12'953    507             0  34'443/55'023
      'max_lp':       12'629   17'235   10'972       2     11'081  1'485         1'199  39'703/74'983

Lp Cut            default_lp  max_lp
          CG_FF:         531      92
           CG_K:         261       6
          CG_KL:         227       3
           CG_R:         567      34
          CG_RB:          20       -
         CG_RBP:           7       -
         Clique:           -     114
             IB:          39       6
       MIR_1_FF:         330     668
        MIR_1_K:          72      23
       MIR_1_KL:         210      35
        MIR_1_R:         295     308
      MIR_1_RLT:           -   3'302
       MIR_2_FF:         343     589
        MIR_2_K:          86     182
       MIR_2_KL:         167      82
        MIR_2_R:         370     646
       MIR_2_RB:           5       4
      MIR_2_RBP:           7       2
       MIR_3_FF:         138     131
        MIR_3_K:          28      22
       MIR_3_KL:          42       9
        MIR_3_R:         144     215
       MIR_3_RB:           6       5
      MIR_3_RBP:           8       2
       MIR_4_FF:          49      49
        MIR_4_K:          15      10
       MIR_4_KL:          21       1
        MIR_4_R:          86     165
       MIR_4_RB:           1       5
      MIR_4_RBP:           4       4
       MIR_5_FF:          16      21
        MIR_5_K:           3       8
       MIR_5_KL:           1       3
        MIR_5_R:          57     173
       MIR_5_RB:           1       4
      MIR_5_RBP:           2       5
       MIR_6_FF:           1       5
        MIR_6_K:           -       5
        MIR_6_R:          36     127
       MIR_6_RB:           3       2
      MIR_6_RBP:           1       5
   ZERO_HALF_FF:         134     356
    ZERO_HALF_K:          42      12
   ZERO_HALF_KL:          52       3
    ZERO_HALF_R:      30'011  32'238
   ZERO_HALF_RB:           2       -
  ZERO_HALF_RBP:           2      22

LNS stats       Improv/Calls  Closed  Difficulty  TimeLimit
  'rins/rens':     4253/4253     50%    8.13e-01       0.10

LS stats                                    Batches  Restarts/Perturbs   LinMoves   GenMoves  CompoundMoves  Bactracks  WeightUpdates  ScoreComputed
                             'fj_restart':      176                 59  5'449'485          0              0          0      4'464'025      8'256'224
                    'fj_restart_compound':      443                 59          0  5'571'624        181'702  2'694'835         15'326     84'194'801
                'fj_restart_compound_obj':      249                 42          0  3'146'484        137'320  1'504'520          7'262     47'272'294
            'fj_restart_compound_perturb':      192                 41          0  2'375'007        117'982  1'128'420          5'410     36'589'308
        'fj_restart_compound_perturb_obj':      251                 62          0  3'048'369        155'886  1'446'113          7'486     47'758'055
                       'fj_restart_decay':       69                 38  2'379'346          0              0          0         99'423      1'299'847
              'fj_restart_decay_compound':      206                 47          0  2'788'196        440'877  1'173'555          2'808     39'829'459
          'fj_restart_decay_compound_obj':      372                 64          0  5'148'325        806'600  2'170'686          5'059     72'090'661
      'fj_restart_decay_compound_perturb':       95                 50          0  1'164'153        183'635    490'119          1'343     18'237'619
  'fj_restart_decay_compound_perturb_obj':      176                 57          0  2'305'097        364'456    970'171          2'457     33'934'839
                   'fj_restart_decay_obj':      185                 51  6'386'192          0              0          0        266'959      3'485'964
               'fj_restart_decay_perturb':      225                 50  7'731'612          0              0          0        325'934      4'260'343
           'fj_restart_decay_perturb_obj':      216                 53  7'431'708          0              0          0        311'960      4'078'065
                         'fj_restart_obj':      144                 55  4'363'708          0              0          0      3'520'622      6'877'050
                     'fj_restart_perturb':      145                 49  4'395'040          0              0          0      3'601'794      6'862'410
                 'fj_restart_perturb_obj':      146                 54  4'317'031          0              0          0      3'670'343      6'602'856

Solution repositories    Added  Queried  Synchro
    'alternative_path':      0        0        0
      'best_solutions':      0        0        0
   'fj solution hints':    823        0      823
        'lp solutions':    665    4'254      664
                'pump':      0        0

Improving bounds shared    Num  Sym
            'default_lp':    2    0
                'max_lp':   13    0
                 'no_lp':  193    0

Clauses shared    #Exported  #Imported  #BinaryRead  #BinaryTotal
   'default_lp':      1'818     48'303          146           315
       'max_lp':      2'461     50'274          192           315
        'no_lp':     52'440      4'344          315           315

LRAT_status: NA
CpSolverResponse summary:
status: INFEASIBLE
objective: NA
best_bound: NA
integers: 374
booleans: 437
conflicts: 9139992
branches: 13124880
propagations: 747525262
integer_propagations: 223850524
restarts: 30325
lp_iterations: 0
walltime: 936.912
usertime: 936.912
deterministic_time: 4316.69
gap_integral: 0

{
  "board_size": 22,
  "parity_proved": 0,
  "target": 34,
  "child_id": 2038,
  "child_count": 2640,
  "partition": "unknown_pair_x_diag_plus_twos_x_diag_minus_twos",
  "build_seconds": 0.07917642593383789,
  "workers": 4,
  "requested_seed": 2026074138,
  "effective_seed": 2026074138,
  "main_diagonal_pair": [
    5,
    7
  ],
  "pair_index": 86,
  "diag_plus_twos": 17,
  "diag_minus_twos": 16,
  "pair_excess": 10,
  "residual_certificate_slack": 102,
  "analytic_minimum_line_defect": 0,
  "analytic_defect_details": {
    "row_costs": {
      "12": 6,
      "13": 3,
      "14": 0,
      "15": 0,
      "16": 0,
      "17": 0
    },
    "column_costs": {
      "12": 6,
      "13": 3,
      "14": 0,
      "15": 0,
      "16": 0,
      "17": 0
    },
    "plus_cost": 0,
    "minus_cost": 0,
    "row_column_minimum": 0
  },
  "maximal_line_constraints": 2455,
  "analytic_infeasible": false,
  "allowed_points": 242,
  "status": "INFEASIBLE",
  "proof_method": "cp_sat_all_lines_with_certificate_profile_cuts",
  "elapsed_seconds": 936.9128069877625,
  "branches": 13124880,
  "conflicts": 9139992
}
